N = 7;
M = 6;
F = [10,10,10,10,10,10];
C = [6,6,6,6,6,6];
D = [1.5,2.0,3.0,4.0,2.5,1.0,2.0];
B = [|
4.0,4.0,3.5,1.3,0.5,-1.0|
4.5,4.5,5.0,3.0,1.0,0.0|
2.5,2.5,4.0,5.0,1.5,1.5|
0.5,4.2,3.5,3.3,5.0,3.3|
1.0,3.5,4.5,5.5,4.0,4.0|
0.5,1.5,1.5,1.8,5.5,4.5|
-3.5,-0.5,0.0,1.3,3.0,2.0|];
